(set-logic QF_LRA)
(declare-fun T1 () Real )
(declare-fun T2 () Real )
(declare-fun T3 () Real )
(declare-fun T4 () Real )
(declare-fun T5 () Real )
(declare-fun T6 () Real )
(declare-fun Z () Real )
(assert ( and 
(or ( <= ( + T1 24 ) T2 ) ( <= ( + T2 17 ) T1 ) )
(or ( <= ( + T1 97 )  ( + T2 17 ) ) ( <= ( + T2 42 )( + T1 24 ) ) )
(or ( <= ( + T1 179 )  ( + T2 42 ) ) ( <= ( + T2 101 )( + T1 97 ) ) )
(or ( <= ( + T1 188 )  ( + T2 101 ) ) ( <= ( + T2 121 )( + T1 179 ) ) )
(or ( <= ( + T1 249 )  ( + T2 121 ) ) ( <= ( + T2 133 )( + T1 188 ) ) )
(or ( <= ( + T1 275 )  ( + T2 133 ) ) ( <= ( + T2 165 )( + T1 249 ) ) )
(or ( <= ( + T1 324 )  ( + T2 165 ) ) ( <= ( + T2 198 )( + T1 275 ) ) )
(or ( <= ( + T1 366 )  ( + T2 198 ) ) ( <= ( + T2 279 )( + T1 324 ) ) )
(or ( <= ( + T1 24 ) T3 ) ( <= ( + T3 76 ) T1 ) )
(or ( <= ( + T1 97 )  ( + T3 76 ) ) ( <= ( + T3 84 )( + T1 24 ) ) )
(or ( <= ( + T1 179 )  ( + T3 84 ) ) ( <= ( + T3 106 )( + T1 97 ) ) )
(or ( <= ( + T1 188 )  ( + T3 106 ) ) ( <= ( + T3 202 )( + T1 179 ) ) )
(or ( <= ( + T1 249 )  ( + T3 202 ) ) ( <= ( + T3 218 )( + T1 188 ) ) )
(or ( <= ( + T1 275 )  ( + T3 218 ) ) ( <= ( + T3 312 )( + T1 249 ) ) )
(or ( <= ( + T1 324 )  ( + T3 312 ) ) ( <= ( + T3 366 )( + T1 275 ) ) )
(or ( <= ( + T1 366 )  ( + T3 366 ) ) ( <= ( + T3 405 )( + T1 324 ) ) )
(or ( <= ( + T1 24 ) T4 ) ( <= ( + T4 68 ) T1 ) )
(or ( <= ( + T1 97 )  ( + T4 68 ) ) ( <= ( + T4 166 )( + T1 24 ) ) )
(or ( <= ( + T1 179 )  ( + T4 166 ) ) ( <= ( + T4 264 )( + T1 97 ) ) )
(or ( <= ( + T1 188 )  ( + T4 264 ) ) ( <= ( + T4 335 )( + T1 179 ) ) )
(or ( <= ( + T1 249 )  ( + T4 335 ) ) ( <= ( + T4 396 )( + T1 188 ) ) )
(or ( <= ( + T1 275 )  ( + T4 396 ) ) ( <= ( + T4 480 )( + T1 249 ) ) )
(or ( <= ( + T1 324 )  ( + T4 480 ) ) ( <= ( + T4 538 )( + T1 275 ) ) )
(or ( <= ( + T1 366 )  ( + T4 538 ) ) ( <= ( + T4 574 )( + T1 324 ) ) )
(or ( <= ( + T1 24 ) T5 ) ( <= ( + T5 56 ) T1 ) )
(or ( <= ( + T1 97 )  ( + T5 56 ) ) ( <= ( + T5 95 )( + T1 24 ) ) )
(or ( <= ( + T1 179 )  ( + T5 95 ) ) ( <= ( + T5 139 )( + T1 97 ) ) )
(or ( <= ( + T1 188 )  ( + T5 139 ) ) ( <= ( + T5 207 )( + T1 179 ) ) )
(or ( <= ( + T1 249 )  ( + T5 207 ) ) ( <= ( + T5 271 )( + T1 188 ) ) )
(or ( <= ( + T1 275 )  ( + T5 271 ) ) ( <= ( + T5 315 )( + T1 249 ) ) )
(or ( <= ( + T1 324 )  ( + T5 315 ) ) ( <= ( + T5 324 )( + T1 275 ) ) )
(or ( <= ( + T1 366 )  ( + T5 324 ) ) ( <= ( + T5 356 )( + T1 324 ) ) )
(or ( <= ( + T1 24 ) T6 ) ( <= ( + T6 69 ) T1 ) )
(or ( <= ( + T1 97 )  ( + T6 69 ) ) ( <= ( + T6 88 )( + T1 24 ) ) )
(or ( <= ( + T1 179 )  ( + T6 88 ) ) ( <= ( + T6 139 )( + T1 97 ) ) )
(or ( <= ( + T1 188 )  ( + T6 139 ) ) ( <= ( + T6 219 )( + T1 179 ) ) )
(or ( <= ( + T1 249 )  ( + T6 219 ) ) ( <= ( + T6 269 )( + T1 188 ) ) )
(or ( <= ( + T1 275 )  ( + T6 269 ) ) ( <= ( + T6 305 )( + T1 249 ) ) )
(or ( <= ( + T1 324 )  ( + T6 305 ) ) ( <= ( + T6 318 )( + T1 275 ) ) )
(or ( <= ( + T1 366 )  ( + T6 318 ) ) ( <= ( + T6 344 )( + T1 324 ) ) )
(or ( <= ( + T2 17 ) T3 ) ( <= ( + T3 76 ) T2 ) )
(or ( <= ( + T2 42 )  ( + T3 76 ) ) ( <= ( + T3 84 )( + T2 17 ) ) )
(or ( <= ( + T2 101 )  ( + T3 84 ) ) ( <= ( + T3 106 )( + T2 42 ) ) )
(or ( <= ( + T2 121 )  ( + T3 106 ) ) ( <= ( + T3 202 )( + T2 101 ) ) )
(or ( <= ( + T2 133 )  ( + T3 202 ) ) ( <= ( + T3 218 )( + T2 121 ) ) )
(or ( <= ( + T2 165 )  ( + T3 218 ) ) ( <= ( + T3 312 )( + T2 133 ) ) )
(or ( <= ( + T2 198 )  ( + T3 312 ) ) ( <= ( + T3 366 )( + T2 165 ) ) )
(or ( <= ( + T2 279 )  ( + T3 366 ) ) ( <= ( + T3 405 )( + T2 198 ) ) )
(or ( <= ( + T2 17 ) T4 ) ( <= ( + T4 68 ) T2 ) )
(or ( <= ( + T2 42 )  ( + T4 68 ) ) ( <= ( + T4 166 )( + T2 17 ) ) )
(or ( <= ( + T2 101 )  ( + T4 166 ) ) ( <= ( + T4 264 )( + T2 42 ) ) )
(or ( <= ( + T2 121 )  ( + T4 264 ) ) ( <= ( + T4 335 )( + T2 101 ) ) )
(or ( <= ( + T2 133 )  ( + T4 335 ) ) ( <= ( + T4 396 )( + T2 121 ) ) )
(or ( <= ( + T2 165 )  ( + T4 396 ) ) ( <= ( + T4 480 )( + T2 133 ) ) )
(or ( <= ( + T2 198 )  ( + T4 480 ) ) ( <= ( + T4 538 )( + T2 165 ) ) )
(or ( <= ( + T2 279 )  ( + T4 538 ) ) ( <= ( + T4 574 )( + T2 198 ) ) )
(or ( <= ( + T2 17 ) T5 ) ( <= ( + T5 56 ) T2 ) )
(or ( <= ( + T2 42 )  ( + T5 56 ) ) ( <= ( + T5 95 )( + T2 17 ) ) )
(or ( <= ( + T2 101 )  ( + T5 95 ) ) ( <= ( + T5 139 )( + T2 42 ) ) )
(or ( <= ( + T2 121 )  ( + T5 139 ) ) ( <= ( + T5 207 )( + T2 101 ) ) )
(or ( <= ( + T2 133 )  ( + T5 207 ) ) ( <= ( + T5 271 )( + T2 121 ) ) )
(or ( <= ( + T2 165 )  ( + T5 271 ) ) ( <= ( + T5 315 )( + T2 133 ) ) )
(or ( <= ( + T2 198 )  ( + T5 315 ) ) ( <= ( + T5 324 )( + T2 165 ) ) )
(or ( <= ( + T2 279 )  ( + T5 324 ) ) ( <= ( + T5 356 )( + T2 198 ) ) )
(or ( <= ( + T2 17 ) T6 ) ( <= ( + T6 69 ) T2 ) )
(or ( <= ( + T2 42 )  ( + T6 69 ) ) ( <= ( + T6 88 )( + T2 17 ) ) )
(or ( <= ( + T2 101 )  ( + T6 88 ) ) ( <= ( + T6 139 )( + T2 42 ) ) )
(or ( <= ( + T2 121 )  ( + T6 139 ) ) ( <= ( + T6 219 )( + T2 101 ) ) )
(or ( <= ( + T2 133 )  ( + T6 219 ) ) ( <= ( + T6 269 )( + T2 121 ) ) )
(or ( <= ( + T2 165 )  ( + T6 269 ) ) ( <= ( + T6 305 )( + T2 133 ) ) )
(or ( <= ( + T2 198 )  ( + T6 305 ) ) ( <= ( + T6 318 )( + T2 165 ) ) )
(or ( <= ( + T2 279 )  ( + T6 318 ) ) ( <= ( + T6 344 )( + T2 198 ) ) )
(or ( <= ( + T3 76 ) T4 ) ( <= ( + T4 68 ) T3 ) )
(or ( <= ( + T3 84 )  ( + T4 68 ) ) ( <= ( + T4 166 )( + T3 76 ) ) )
(or ( <= ( + T3 106 )  ( + T4 166 ) ) ( <= ( + T4 264 )( + T3 84 ) ) )
(or ( <= ( + T3 202 )  ( + T4 264 ) ) ( <= ( + T4 335 )( + T3 106 ) ) )
(or ( <= ( + T3 218 )  ( + T4 335 ) ) ( <= ( + T4 396 )( + T3 202 ) ) )
(or ( <= ( + T3 312 )  ( + T4 396 ) ) ( <= ( + T4 480 )( + T3 218 ) ) )
(or ( <= ( + T3 366 )  ( + T4 480 ) ) ( <= ( + T4 538 )( + T3 312 ) ) )
(or ( <= ( + T3 405 )  ( + T4 538 ) ) ( <= ( + T4 574 )( + T3 366 ) ) )
(or ( <= ( + T3 76 ) T5 ) ( <= ( + T5 56 ) T3 ) )
(or ( <= ( + T3 84 )  ( + T5 56 ) ) ( <= ( + T5 95 )( + T3 76 ) ) )
(or ( <= ( + T3 106 )  ( + T5 95 ) ) ( <= ( + T5 139 )( + T3 84 ) ) )
(or ( <= ( + T3 202 )  ( + T5 139 ) ) ( <= ( + T5 207 )( + T3 106 ) ) )
(or ( <= ( + T3 218 )  ( + T5 207 ) ) ( <= ( + T5 271 )( + T3 202 ) ) )
(or ( <= ( + T3 312 )  ( + T5 271 ) ) ( <= ( + T5 315 )( + T3 218 ) ) )
(or ( <= ( + T3 366 )  ( + T5 315 ) ) ( <= ( + T5 324 )( + T3 312 ) ) )
(or ( <= ( + T3 405 )  ( + T5 324 ) ) ( <= ( + T5 356 )( + T3 366 ) ) )
(or ( <= ( + T3 76 ) T6 ) ( <= ( + T6 69 ) T3 ) )
(or ( <= ( + T3 84 )  ( + T6 69 ) ) ( <= ( + T6 88 )( + T3 76 ) ) )
(or ( <= ( + T3 106 )  ( + T6 88 ) ) ( <= ( + T6 139 )( + T3 84 ) ) )
(or ( <= ( + T3 202 )  ( + T6 139 ) ) ( <= ( + T6 219 )( + T3 106 ) ) )
(or ( <= ( + T3 218 )  ( + T6 219 ) ) ( <= ( + T6 269 )( + T3 202 ) ) )
(or ( <= ( + T3 312 )  ( + T6 269 ) ) ( <= ( + T6 305 )( + T3 218 ) ) )
(or ( <= ( + T3 366 )  ( + T6 305 ) ) ( <= ( + T6 318 )( + T3 312 ) ) )
(or ( <= ( + T3 405 )  ( + T6 318 ) ) ( <= ( + T6 344 )( + T3 366 ) ) )
(or ( <= ( + T4 68 ) T5 ) ( <= ( + T5 56 ) T4 ) )
(or ( <= ( + T4 166 )  ( + T5 56 ) ) ( <= ( + T5 95 )( + T4 68 ) ) )
(or ( <= ( + T4 264 )  ( + T5 95 ) ) ( <= ( + T5 139 )( + T4 166 ) ) )
(or ( <= ( + T4 335 )  ( + T5 139 ) ) ( <= ( + T5 207 )( + T4 264 ) ) )
(or ( <= ( + T4 396 )  ( + T5 207 ) ) ( <= ( + T5 271 )( + T4 335 ) ) )
(or ( <= ( + T4 480 )  ( + T5 271 ) ) ( <= ( + T5 315 )( + T4 396 ) ) )
(or ( <= ( + T4 538 )  ( + T5 315 ) ) ( <= ( + T5 324 )( + T4 480 ) ) )
(or ( <= ( + T4 574 )  ( + T5 324 ) ) ( <= ( + T5 356 )( + T4 538 ) ) )
(or ( <= ( + T4 68 ) T6 ) ( <= ( + T6 69 ) T4 ) )
(or ( <= ( + T4 166 )  ( + T6 69 ) ) ( <= ( + T6 88 )( + T4 68 ) ) )
(or ( <= ( + T4 264 )  ( + T6 88 ) ) ( <= ( + T6 139 )( + T4 166 ) ) )
(or ( <= ( + T4 335 )  ( + T6 139 ) ) ( <= ( + T6 219 )( + T4 264 ) ) )
(or ( <= ( + T4 396 )  ( + T6 219 ) ) ( <= ( + T6 269 )( + T4 335 ) ) )
(or ( <= ( + T4 480 )  ( + T6 269 ) ) ( <= ( + T6 305 )( + T4 396 ) ) )
(or ( <= ( + T4 538 )  ( + T6 305 ) ) ( <= ( + T6 318 )( + T4 480 ) ) )
(or ( <= ( + T4 574 )  ( + T6 318 ) ) ( <= ( + T6 344 )( + T4 538 ) ) )
(or ( <= ( + T5 56 ) T6 ) ( <= ( + T6 69 ) T5 ) )
(or ( <= ( + T5 95 )  ( + T6 69 ) ) ( <= ( + T6 88 )( + T5 56 ) ) )
(or ( <= ( + T5 139 )  ( + T6 88 ) ) ( <= ( + T6 139 )( + T5 95 ) ) )
(or ( <= ( + T5 207 )  ( + T6 139 ) ) ( <= ( + T6 219 )( + T5 139 ) ) )
(or ( <= ( + T5 271 )  ( + T6 219 ) ) ( <= ( + T6 269 )( + T5 207 ) ) )
(or ( <= ( + T5 315 )  ( + T6 269 ) ) ( <= ( + T6 305 )( + T5 271 ) ) )
(or ( <= ( + T5 324 )  ( + T6 305 ) ) ( <= ( + T6 318 )( + T5 315 ) ) )
(or ( <= ( + T5 356 )  ( + T6 318 ) ) ( <= ( + T6 344 )( + T5 324 ) ) )
( <= ( + T1 366 ) Z)
( <= ( + T2 279 ) Z)
( <= ( + T3 405 ) Z)
( <= ( + T4 574 ) Z)
( <= ( + T5 356 ) Z)
( <= ( + T6 344 ) Z)
( >= T1 0 )
( >= T2 0 )
( >= T3 0 )
( >= T4 0 )
( >= T5 0 )
( >= T6 0 )
) )
(minimize Z)
(check-sat)